393020
999316
705975
523764
900723
542437
392170
688772
333299
382634
596526
305582
180365
545791
309267
230225
920697
228196
828649
908276
606121
287329
557007
835770
706260
71039
482104
655013
794526
598970
29979
762120
621262
968404
366097
826534
273513
671259
481074
879200
912228
79555
206450
687268
582258
337788
407848
501846
260688
901471
875642
937175
613274
418759
853287
686966
669463
145967
239820
753315
610047
206314
26029
123207
215461
712739
901256
696047
31945
494960
27266
641163
578436
188808
623468
177114
334016
747065
395390
985479
219051
66584
183377
25778
235802
641946
963218
712396
204733
457925
642766
291999
704600
838229
504957
85254
448622
918561
721593
776342
